instances/shortest_path/discrete/shortest_path_6_1.lp
\ Model nohadani_6_1
\ LP format - for model browsing. Use MPS format to capture full model detail.
\ Signature: 0x9d6f60db6d04e09d
Minimize
  58.00862004909271 y[0,1] + 37.57658845611187 y[0,2]
   + 48.76474136094644 y[0,4] + 58.00862004909271 y[1,0]
   + 29.41088233970548 y[1,2] + 85.70297544426332 y[1,4]
   + 94.19129471453293 y[1,5] + 37.57658845611187 y[2,0]
   + 29.41088233970548 y[2,1] + 78.91767862779544 y[2,3]
   + 56.30275304103699 y[2,4] + 79.07591289387686 y[2,5]
   + 78.91767862779544 y[3,2] + 58.60034129593445 y[3,4]
   + 30.01666203960727 y[3,5] + 48.76474136094644 y[4,0]
   + 85.70297544426332 y[4,1] + 56.30275304103699 y[4,2]
   + 58.60034129593445 y[4,3] + 79.63039620647382 y[4,5]
   + 94.19129471453293 y[5,1] + 79.07591289387686 y[5,2]
   + 30.01666203960727 y[5,3] + 79.63039620647382 y[5,4] + x[0,1] + x[0,2]
   + x[0,4] + x[1,0] + x[1,2] + x[1,4] + x[1,5] + x[2,0] + x[2,1] + x[2,3]
   + x[2,4] + x[2,5] + x[3,2] + x[3,4] + x[3,5] + x[4,0] + x[4,1] + x[4,2]
   + x[4,3] + x[4,5] + x[5,1] + x[5,2] + x[5,3] + x[5,4]
   + 5.800862004909271 r[0,1] + 3.757658845611187 r[0,2]
   + 4.876474136094644 r[0,4] + 5.800862004909271 r[1,0]
   + 2.941088233970548 r[1,2] + 8.570297544426332 r[1,4]
   + 9.419129471453294 r[1,5] + 3.757658845611187 r[2,0]
   + 2.941088233970548 r[2,1] + 7.891767862779544 r[2,3]
   + 5.630275304103699 r[2,4] + 7.907591289387686 r[2,5]
   + 7.891767862779544 r[3,2] + 5.860034129593445 r[3,4]
   + 3.001666203960727 r[3,5] + 4.876474136094644 r[4,0]
   + 8.570297544426332 r[4,1] + 5.630275304103699 r[4,2]
   + 5.860034129593445 r[4,3] + 7.963039620647383 r[4,5]
   + 9.419129471453294 r[5,1] + 7.907591289387686 r[5,2]
   + 3.001666203960727 r[5,3] + 7.963039620647383 r[5,4]
Subject To
 flow_cons_inner_nodes[1]: y[0,1] - y[1,0] - y[1,2] - y[1,4] - y[1,5]
   + y[2,1] + y[4,1] + y[5,1] = 0
 flow_cons_inner_nodes[2]: y[0,2] + y[1,2] - y[2,0] - y[2,1] - y[2,3]
   - y[2,4] - y[2,5] + y[3,2] + y[4,2] + y[5,2] = 0
 flow_cons_inner_nodes[3]: y[2,3] - y[3,2] - y[3,4] - y[3,5] + y[4,3]
   + y[5,3] = 0
 flow_cons_inner_nodes[4]: y[0,4] + y[1,4] + y[2,4] + y[3,4] - y[4,0]
   - y[4,1] - y[4,2] - y[4,3] - y[4,5] + y[5,4] = 0
 flow_cons_source: y[0,1] + y[0,2] + y[0,4] - y[1,0] - y[2,0] - y[4,0] = 1
 flow_cons_target: y[1,5] + y[2,5] + y[3,5] + y[4,5] - y[5,1] - y[5,2]
   - y[5,3] - y[5,4] = 1
 primal_lower: 2.398450998373973 x[0,1] + 4.204495533178579 x[0,2]
   + 1.368180749240413 x[0,4] + 2.501043113571397 x[1,0]
   + 3.397139290884803 x[1,2] + 0.0548577417299656 x[1,4]
   + 3.682111220662848 x[1,5] + 4.983311814164045 x[2,0]
   + 2.665055711383112 x[2,1] + 0.5405751855619992 x[2,3]
   + 2.584455104681269 x[2,4] + 4.04063160985338 x[2,5]
   + 3.907627132818514 x[3,2] + 1.043787645368943 x[3,4]
   + 0.5759290414390853 x[3,5] + 1.036514290700213 x[4,0]
   + 4.006454773669104 x[4,1] + 1.172194022793612 x[4,2]
   + 0.9132174355421401 x[4,3] + 1.549808246630235 x[4,5]
   + 1.516347880437837 x[5,1] + 4.271154549615554 x[5,2]
   + 1.702041308344377 x[5,3] + 4.274391916262853 x[5,4] + 66 u[0,1]
   + 55 u[0,2] + 9 u[0,4] + 50 u[1,0] + 87 u[1,2] + 48 u[1,4] + 76 u[1,5]
   + 42 u[2,0] + 60 u[2,1] + 49 u[2,3] + 98 u[2,4] + 34 u[2,5] + 19 u[3,2]
   + 79 u[3,4] + 15 u[3,5] + 47 u[4,0] + 80 u[4,1] + 23 u[4,2] + 44 u[4,3]
   + 81 u[4,5] + 28 u[5,1] + 98 u[5,2] + 55 u[5,3] + 97 u[5,4] <= 121
 mccormick1[0,1]: - u[0,1] + r[0,1] <= 0
 mccormick1[0,2]: - u[0,2] + r[0,2] <= 0
 mccormick1[0,4]: - u[0,4] + r[0,4] <= 0
 mccormick1[1,0]: - u[1,0] + r[1,0] <= 0
 mccormick1[1,2]: - u[1,2] + r[1,2] <= 0
 mccormick1[1,4]: - u[1,4] + r[1,4] <= 0
 mccormick1[1,5]: - u[1,5] + r[1,5] <= 0
 mccormick1[2,0]: - u[2,0] + r[2,0] <= 0
 mccormick1[2,1]: - u[2,1] + r[2,1] <= 0
 mccormick1[2,3]: - u[2,3] + r[2,3] <= 0
 mccormick1[2,4]: - u[2,4] + r[2,4] <= 0
 mccormick1[2,5]: - u[2,5] + r[2,5] <= 0
 mccormick1[3,2]: - u[3,2] + r[3,2] <= 0
 mccormick1[3,4]: - u[3,4] + r[3,4] <= 0
 mccormick1[3,5]: - u[3,5] + r[3,5] <= 0
 mccormick1[4,0]: - u[4,0] + r[4,0] <= 0
 mccormick1[4,1]: - u[4,1] + r[4,1] <= 0
 mccormick1[4,2]: - u[4,2] + r[4,2] <= 0
 mccormick1[4,3]: - u[4,3] + r[4,3] <= 0
 mccormick1[4,5]: - u[4,5] + r[4,5] <= 0
 mccormick1[5,1]: - u[5,1] + r[5,1] <= 0
 mccormick1[5,2]: - u[5,2] + r[5,2] <= 0
 mccormick1[5,3]: - u[5,3] + r[5,3] <= 0
 mccormick1[5,4]: - u[5,4] + r[5,4] <= 0
 mccormick2[0,1]: - y[0,1] + r[0,1] <= 0
 mccormick2[0,2]: - y[0,2] + r[0,2] <= 0
 mccormick2[0,4]: - y[0,4] + r[0,4] <= 0
 mccormick2[1,0]: - y[1,0] + r[1,0] <= 0
 mccormick2[1,2]: - y[1,2] + r[1,2] <= 0
 mccormick2[1,4]: - y[1,4] + r[1,4] <= 0
 mccormick2[1,5]: - y[1,5] + r[1,5] <= 0
 mccormick2[2,0]: - y[2,0] + r[2,0] <= 0
 mccormick2[2,1]: - y[2,1] + r[2,1] <= 0
 mccormick2[2,3]: - y[2,3] + r[2,3] <= 0
 mccormick2[2,4]: - y[2,4] + r[2,4] <= 0
 mccormick2[2,5]: - y[2,5] + r[2,5] <= 0
 mccormick2[3,2]: - y[3,2] + r[3,2] <= 0
 mccormick2[3,4]: - y[3,4] + r[3,4] <= 0
 mccormick2[3,5]: - y[3,5] + r[3,5] <= 0
 mccormick2[4,0]: - y[4,0] + r[4,0] <= 0
 mccormick2[4,1]: - y[4,1] + r[4,1] <= 0
 mccormick2[4,2]: - y[4,2] + r[4,2] <= 0
 mccormick2[4,3]: - y[4,3] + r[4,3] <= 0
 mccormick2[4,5]: - y[4,5] + r[4,5] <= 0
 mccormick2[5,1]: - y[5,1] + r[5,1] <= 0
 mccormick2[5,2]: - y[5,2] + r[5,2] <= 0
 mccormick2[5,3]: - y[5,3] + r[5,3] <= 0
 mccormick2[5,4]: - y[5,4] + r[5,4] <= 0
 mccormick3[0,1]: - y[0,1] - u[0,1] + r[0,1] >= -1
 mccormick3[0,2]: - y[0,2] - u[0,2] + r[0,2] >= -1
 mccormick3[0,4]: - y[0,4] - u[0,4] + r[0,4] >= -1
 mccormick3[1,0]: - y[1,0] - u[1,0] + r[1,0] >= -1
 mccormick3[1,2]: - y[1,2] - u[1,2] + r[1,2] >= -1
 mccormick3[1,4]: - y[1,4] - u[1,4] + r[1,4] >= -1
 mccormick3[1,5]: - y[1,5] - u[1,5] + r[1,5] >= -1
 mccormick3[2,0]: - y[2,0] - u[2,0] + r[2,0] >= -1
 mccormick3[2,1]: - y[2,1] - u[2,1] + r[2,1] >= -1
 mccormick3[2,3]: - y[2,3] - u[2,3] + r[2,3] >= -1
 mccormick3[2,4]: - y[2,4] - u[2,4] + r[2,4] >= -1
 mccormick3[2,5]: - y[2,5] - u[2,5] + r[2,5] >= -1
 mccormick3[3,2]: - y[3,2] - u[3,2] + r[3,2] >= -1
 mccormick3[3,4]: - y[3,4] - u[3,4] + r[3,4] >= -1
 mccormick3[3,5]: - y[3,5] - u[3,5] + r[3,5] >= -1
 mccormick3[4,0]: - y[4,0] - u[4,0] + r[4,0] >= -1
 mccormick3[4,1]: - y[4,1] - u[4,1] + r[4,1] >= -1
 mccormick3[4,2]: - y[4,2] - u[4,2] + r[4,2] >= -1
 mccormick3[4,3]: - y[4,3] - u[4,3] + r[4,3] >= -1
 mccormick3[4,5]: - y[4,5] - u[4,5] + r[4,5] >= -1
 mccormick3[5,1]: - y[5,1] - u[5,1] + r[5,1] >= -1
 mccormick3[5,2]: - y[5,2] - u[5,2] + r[5,2] >= -1
 mccormick3[5,3]: - y[5,3] - u[5,3] + r[5,3] >= -1
 mccormick3[5,4]: - y[5,4] - u[5,4] + r[5,4] >= -1
Bounds
Binaries
 y[0,1] y[0,2] y[0,4] y[1,0] y[1,2] y[1,4] y[1,5] y[2,0] y[2,1] y[2,3]
 y[2,4] y[2,5] y[3,2] y[3,4] y[3,5] y[4,0] y[4,1] y[4,2] y[4,3] y[4,5]
 y[5,1] y[5,2] y[5,3] y[5,4] x[0,1] x[0,2] x[0,4] x[1,0] x[1,2] x[1,4]
 x[1,5] x[2,0] x[2,1] x[2,3] x[2,4] x[2,5] x[3,2] x[3,4] x[3,5] x[4,0]
 x[4,1] x[4,2] x[4,3] x[4,5] x[5,1] x[5,2] x[5,3] x[5,4] u[0,1] u[0,2]
 u[0,4] u[1,0] u[1,2] u[1,4] u[1,5] u[2,0] u[2,1] u[2,3] u[2,4] u[2,5]
 u[3,2] u[3,4] u[3,5] u[4,0] u[4,1] u[4,2] u[4,3] u[4,5] u[5,1] u[5,2]
 u[5,3] u[5,4] r[0,1] r[0,2] r[0,4] r[1,0] r[1,2] r[1,4] r[1,5] r[2,0]
 r[2,1] r[2,3] r[2,4] r[2,5] r[3,2] r[3,4] r[3,5] r[4,0] r[4,1] r[4,2]
 r[4,3] r[4,5] r[5,1] r[5,2] r[5,3] r[5,4]
End
