instances/shortest_path/discrete/shortest_path_6_1.mps
* Signature: 0x9d6f60db6d04e09d
NAME nohadani_6_1
ROWS
 N  OBJ
 E  flow_cons_inner_nodes[1]
 E  flow_cons_inner_nodes[2]
 E  flow_cons_inner_nodes[3]
 E  flow_cons_inner_nodes[4]
 E  flow_cons_source
 E  flow_cons_target
 L  primal_lower
 L  mccormick1[0,1]
 L  mccormick1[0,2]
 L  mccormick1[0,4]
 L  mccormick1[1,0]
 L  mccormick1[1,2]
 L  mccormick1[1,4]
 L  mccormick1[1,5]
 L  mccormick1[2,0]
 L  mccormick1[2,1]
 L  mccormick1[2,3]
 L  mccormick1[2,4]
 L  mccormick1[2,5]
 L  mccormick1[3,2]
 L  mccormick1[3,4]
 L  mccormick1[3,5]
 L  mccormick1[4,0]
 L  mccormick1[4,1]
 L  mccormick1[4,2]
 L  mccormick1[4,3]
 L  mccormick1[4,5]
 L  mccormick1[5,1]
 L  mccormick1[5,2]
 L  mccormick1[5,3]
 L  mccormick1[5,4]
 L  mccormick2[0,1]
 L  mccormick2[0,2]
 L  mccormick2[0,4]
 L  mccormick2[1,0]
 L  mccormick2[1,2]
 L  mccormick2[1,4]
 L  mccormick2[1,5]
 L  mccormick2[2,0]
 L  mccormick2[2,1]
 L  mccormick2[2,3]
 L  mccormick2[2,4]
 L  mccormick2[2,5]
 L  mccormick2[3,2]
 L  mccormick2[3,4]
 L  mccormick2[3,5]
 L  mccormick2[4,0]
 L  mccormick2[4,1]
 L  mccormick2[4,2]
 L  mccormick2[4,3]
 L  mccormick2[4,5]
 L  mccormick2[5,1]
 L  mccormick2[5,2]
 L  mccormick2[5,3]
 L  mccormick2[5,4]
 G  mccormick3[0,1]
 G  mccormick3[0,2]
 G  mccormick3[0,4]
 G  mccormick3[1,0]
 G  mccormick3[1,2]
 G  mccormick3[1,4]
 G  mccormick3[1,5]
 G  mccormick3[2,0]
 G  mccormick3[2,1]
 G  mccormick3[2,3]
 G  mccormick3[2,4]
 G  mccormick3[2,5]
 G  mccormick3[3,2]
 G  mccormick3[3,4]
 G  mccormick3[3,5]
 G  mccormick3[4,0]
 G  mccormick3[4,1]
 G  mccormick3[4,2]
 G  mccormick3[4,3]
 G  mccormick3[4,5]
 G  mccormick3[5,1]
 G  mccormick3[5,2]
 G  mccormick3[5,3]
 G  mccormick3[5,4]
COLUMNS
    MARKER    'MARKER'                 'INTORG'
    y[0,1]    OBJ       5.8008620049092706e+01
    y[0,1]    flow_cons_inner_nodes[1]  1
    y[0,1]    flow_cons_source  1
    y[0,1]    mccormick2[0,1]  -1
    y[0,1]    mccormick3[0,1]  -1
    y[0,2]    OBJ       3.7576588456111871e+01
    y[0,2]    flow_cons_inner_nodes[2]  1
    y[0,2]    flow_cons_source  1
    y[0,2]    mccormick2[0,2]  -1
    y[0,2]    mccormick3[0,2]  -1
    y[0,4]    OBJ       4.8764741360946438e+01
    y[0,4]    flow_cons_inner_nodes[4]  1
    y[0,4]    flow_cons_source  1
    y[0,4]    mccormick2[0,4]  -1
    y[0,4]    mccormick3[0,4]  -1
    y[1,0]    OBJ       5.8008620049092706e+01
    y[1,0]    flow_cons_inner_nodes[1]  -1
    y[1,0]    flow_cons_source  -1
    y[1,0]    mccormick2[1,0]  -1
    y[1,0]    mccormick3[1,0]  -1
    y[1,2]    OBJ       2.9410882339705484e+01
    y[1,2]    flow_cons_inner_nodes[1]  -1
    y[1,2]    flow_cons_inner_nodes[2]  1
    y[1,2]    mccormick2[1,2]  -1
    y[1,2]    mccormick3[1,2]  -1
    y[1,4]    OBJ       8.5702975444263316e+01
    y[1,4]    flow_cons_inner_nodes[1]  -1
    y[1,4]    flow_cons_inner_nodes[4]  1
    y[1,4]    mccormick2[1,4]  -1
    y[1,4]    mccormick3[1,4]  -1
    y[1,5]    OBJ       9.4191294714532930e+01
    y[1,5]    flow_cons_inner_nodes[1]  -1
    y[1,5]    flow_cons_target  1
    y[1,5]    mccormick2[1,5]  -1
    y[1,5]    mccormick3[1,5]  -1
    y[2,0]    OBJ       3.7576588456111871e+01
    y[2,0]    flow_cons_inner_nodes[2]  -1
    y[2,0]    flow_cons_source  -1
    y[2,0]    mccormick2[2,0]  -1
    y[2,0]    mccormick3[2,0]  -1
    y[2,1]    OBJ       2.9410882339705484e+01
    y[2,1]    flow_cons_inner_nodes[1]  1
    y[2,1]    flow_cons_inner_nodes[2]  -1
    y[2,1]    mccormick2[2,1]  -1
    y[2,1]    mccormick3[2,1]  -1
    y[2,3]    OBJ       7.8917678627795439e+01
    y[2,3]    flow_cons_inner_nodes[2]  -1
    y[2,3]    flow_cons_inner_nodes[3]  1
    y[2,3]    mccormick2[2,3]  -1
    y[2,3]    mccormick3[2,3]  -1
    y[2,4]    OBJ       5.6302753041036986e+01
    y[2,4]    flow_cons_inner_nodes[2]  -1
    y[2,4]    flow_cons_inner_nodes[4]  1
    y[2,4]    mccormick2[2,4]  -1
    y[2,4]    mccormick3[2,4]  -1
    y[2,5]    OBJ       7.9075912893876861e+01
    y[2,5]    flow_cons_inner_nodes[2]  -1
    y[2,5]    flow_cons_target  1
    y[2,5]    mccormick2[2,5]  -1
    y[2,5]    mccormick3[2,5]  -1
    y[3,2]    OBJ       7.8917678627795439e+01
    y[3,2]    flow_cons_inner_nodes[2]  1
    y[3,2]    flow_cons_inner_nodes[3]  -1
    y[3,2]    mccormick2[3,2]  -1
    y[3,2]    mccormick3[3,2]  -1
    y[3,4]    OBJ       5.8600341295934449e+01
    y[3,4]    flow_cons_inner_nodes[3]  -1
    y[3,4]    flow_cons_inner_nodes[4]  1
    y[3,4]    mccormick2[3,4]  -1
    y[3,4]    mccormick3[3,4]  -1
    y[3,5]    OBJ       3.0016662039607269e+01
    y[3,5]    flow_cons_inner_nodes[3]  -1
    y[3,5]    flow_cons_target  1
    y[3,5]    mccormick2[3,5]  -1
    y[3,5]    mccormick3[3,5]  -1
    y[4,0]    OBJ       4.8764741360946438e+01
    y[4,0]    flow_cons_inner_nodes[4]  -1
    y[4,0]    flow_cons_source  -1
    y[4,0]    mccormick2[4,0]  -1
    y[4,0]    mccormick3[4,0]  -1
    y[4,1]    OBJ       8.5702975444263316e+01
    y[4,1]    flow_cons_inner_nodes[1]  1
    y[4,1]    flow_cons_inner_nodes[4]  -1
    y[4,1]    mccormick2[4,1]  -1
    y[4,1]    mccormick3[4,1]  -1
    y[4,2]    OBJ       5.6302753041036986e+01
    y[4,2]    flow_cons_inner_nodes[2]  1
    y[4,2]    flow_cons_inner_nodes[4]  -1
    y[4,2]    mccormick2[4,2]  -1
    y[4,2]    mccormick3[4,2]  -1
    y[4,3]    OBJ       5.8600341295934449e+01
    y[4,3]    flow_cons_inner_nodes[3]  1
    y[4,3]    flow_cons_inner_nodes[4]  -1
    y[4,3]    mccormick2[4,3]  -1
    y[4,3]    mccormick3[4,3]  -1
    y[4,5]    OBJ       7.9630396206473819e+01
    y[4,5]    flow_cons_inner_nodes[4]  -1
    y[4,5]    flow_cons_target  1
    y[4,5]    mccormick2[4,5]  -1
    y[4,5]    mccormick3[4,5]  -1
    y[5,1]    OBJ       9.4191294714532930e+01
    y[5,1]    flow_cons_inner_nodes[1]  1
    y[5,1]    flow_cons_target  -1
    y[5,1]    mccormick2[5,1]  -1
    y[5,1]    mccormick3[5,1]  -1
    y[5,2]    OBJ       7.9075912893876861e+01
    y[5,2]    flow_cons_inner_nodes[2]  1
    y[5,2]    flow_cons_target  -1
    y[5,2]    mccormick2[5,2]  -1
    y[5,2]    mccormick3[5,2]  -1
    y[5,3]    OBJ       3.0016662039607269e+01
    y[5,3]    flow_cons_inner_nodes[3]  1
    y[5,3]    flow_cons_target  -1
    y[5,3]    mccormick2[5,3]  -1
    y[5,3]    mccormick3[5,3]  -1
    y[5,4]    OBJ       7.9630396206473819e+01
    y[5,4]    flow_cons_inner_nodes[4]  1
    y[5,4]    flow_cons_target  -1
    y[5,4]    mccormick2[5,4]  -1
    y[5,4]    mccormick3[5,4]  -1
    x[0,1]    OBJ       1
    x[0,1]    primal_lower  2.3984509983739732e+00
    x[0,2]    OBJ       1
    x[0,2]    primal_lower  4.2044955331785792e+00
    x[0,4]    OBJ       1
    x[0,4]    primal_lower  1.3681807492404128e+00
    x[1,0]    OBJ       1
    x[1,0]    primal_lower  2.5010431135713973e+00
    x[1,2]    OBJ       1
    x[1,2]    primal_lower  3.3971392908848030e+00
    x[1,4]    OBJ       1
    x[1,4]    primal_lower  5.4857741729965617e-02
    x[1,5]    OBJ       1
    x[1,5]    primal_lower  3.6821112206628483e+00
    x[2,0]    OBJ       1
    x[2,0]    primal_lower  4.9833118141640451e+00
    x[2,1]    OBJ       1
    x[2,1]    primal_lower  2.6650557113831121e+00
    x[2,3]    OBJ       1
    x[2,3]    primal_lower  5.4057518556199924e-01
    x[2,4]    OBJ       1
    x[2,4]    primal_lower  2.5844551046812692e+00
    x[2,5]    OBJ       1
    x[2,5]    primal_lower  4.04063160985338
    x[3,2]    OBJ       1
    x[3,2]    primal_lower  3.9076271328185141e+00
    x[3,4]    OBJ       1
    x[3,4]    primal_lower  1.0437876453689428e+00
    x[3,5]    OBJ       1
    x[3,5]    primal_lower  5.7592904143908530e-01
    x[4,0]    OBJ       1
    x[4,0]    primal_lower  1.0365142907002134e+00
    x[4,1]    OBJ       1
    x[4,1]    primal_lower  4.0064547736691036e+00
    x[4,2]    OBJ       1
    x[4,2]    primal_lower  1.1721940227936116e+00
    x[4,3]    OBJ       1
    x[4,3]    primal_lower  9.1321743554214008e-01
    x[4,5]    OBJ       1
    x[4,5]    primal_lower  1.5498082466302354e+00
    x[5,1]    OBJ       1
    x[5,1]    primal_lower  1.5163478804378372e+00
    x[5,2]    OBJ       1
    x[5,2]    primal_lower  4.2711545496155541e+00
    x[5,3]    OBJ       1
    x[5,3]    primal_lower  1.7020413083443768e+00
    x[5,4]    OBJ       1
    x[5,4]    primal_lower  4.2743919162628528e+00
    u[0,1]    primal_lower  66
    u[0,1]    mccormick1[0,1]  -1
    u[0,1]    mccormick3[0,1]  -1
    u[0,2]    primal_lower  55
    u[0,2]    mccormick1[0,2]  -1
    u[0,2]    mccormick3[0,2]  -1
    u[0,4]    primal_lower  9
    u[0,4]    mccormick1[0,4]  -1
    u[0,4]    mccormick3[0,4]  -1
    u[1,0]    primal_lower  50
    u[1,0]    mccormick1[1,0]  -1
    u[1,0]    mccormick3[1,0]  -1
    u[1,2]    primal_lower  87
    u[1,2]    mccormick1[1,2]  -1
    u[1,2]    mccormick3[1,2]  -1
    u[1,4]    primal_lower  48
    u[1,4]    mccormick1[1,4]  -1
    u[1,4]    mccormick3[1,4]  -1
    u[1,5]    primal_lower  76
    u[1,5]    mccormick1[1,5]  -1
    u[1,5]    mccormick3[1,5]  -1
    u[2,0]    primal_lower  42
    u[2,0]    mccormick1[2,0]  -1
    u[2,0]    mccormick3[2,0]  -1
    u[2,1]    primal_lower  60
    u[2,1]    mccormick1[2,1]  -1
    u[2,1]    mccormick3[2,1]  -1
    u[2,3]    primal_lower  49
    u[2,3]    mccormick1[2,3]  -1
    u[2,3]    mccormick3[2,3]  -1
    u[2,4]    primal_lower  98
    u[2,4]    mccormick1[2,4]  -1
    u[2,4]    mccormick3[2,4]  -1
    u[2,5]    primal_lower  34
    u[2,5]    mccormick1[2,5]  -1
    u[2,5]    mccormick3[2,5]  -1
    u[3,2]    primal_lower  19
    u[3,2]    mccormick1[3,2]  -1
    u[3,2]    mccormick3[3,2]  -1
    u[3,4]    primal_lower  79
    u[3,4]    mccormick1[3,4]  -1
    u[3,4]    mccormick3[3,4]  -1
    u[3,5]    primal_lower  15
    u[3,5]    mccormick1[3,5]  -1
    u[3,5]    mccormick3[3,5]  -1
    u[4,0]    primal_lower  47
    u[4,0]    mccormick1[4,0]  -1
    u[4,0]    mccormick3[4,0]  -1
    u[4,1]    primal_lower  80
    u[4,1]    mccormick1[4,1]  -1
    u[4,1]    mccormick3[4,1]  -1
    u[4,2]    primal_lower  23
    u[4,2]    mccormick1[4,2]  -1
    u[4,2]    mccormick3[4,2]  -1
    u[4,3]    primal_lower  44
    u[4,3]    mccormick1[4,3]  -1
    u[4,3]    mccormick3[4,3]  -1
    u[4,5]    primal_lower  81
    u[4,5]    mccormick1[4,5]  -1
    u[4,5]    mccormick3[4,5]  -1
    u[5,1]    primal_lower  28
    u[5,1]    mccormick1[5,1]  -1
    u[5,1]    mccormick3[5,1]  -1
    u[5,2]    primal_lower  98
    u[5,2]    mccormick1[5,2]  -1
    u[5,2]    mccormick3[5,2]  -1
    u[5,3]    primal_lower  55
    u[5,3]    mccormick1[5,3]  -1
    u[5,3]    mccormick3[5,3]  -1
    u[5,4]    primal_lower  97
    u[5,4]    mccormick1[5,4]  -1
    u[5,4]    mccormick3[5,4]  -1
    r[0,1]    OBJ       5.8008620049092707e+00
    r[0,1]    mccormick1[0,1]  1
    r[0,1]    mccormick2[0,1]  1
    r[0,1]    mccormick3[0,1]  1
    r[0,2]    OBJ       3.7576588456111875e+00
    r[0,2]    mccormick1[0,2]  1
    r[0,2]    mccormick2[0,2]  1
    r[0,2]    mccormick3[0,2]  1
    r[0,4]    OBJ       4.8764741360946440e+00
    r[0,4]    mccormick1[0,4]  1
    r[0,4]    mccormick2[0,4]  1
    r[0,4]    mccormick3[0,4]  1
    r[1,0]    OBJ       5.8008620049092707e+00
    r[1,0]    mccormick1[1,0]  1
    r[1,0]    mccormick2[1,0]  1
    r[1,0]    mccormick3[1,0]  1
    r[1,2]    OBJ       2.9410882339705484e+00
    r[1,2]    mccormick1[1,2]  1
    r[1,2]    mccormick2[1,2]  1
    r[1,2]    mccormick3[1,2]  1
    r[1,4]    OBJ       8.5702975444263316e+00
    r[1,4]    mccormick1[1,4]  1
    r[1,4]    mccormick2[1,4]  1
    r[1,4]    mccormick3[1,4]  1
    r[1,5]    OBJ       9.4191294714532940e+00
    r[1,5]    mccormick1[1,5]  1
    r[1,5]    mccormick2[1,5]  1
    r[1,5]    mccormick3[1,5]  1
    r[2,0]    OBJ       3.7576588456111875e+00
    r[2,0]    mccormick1[2,0]  1
    r[2,0]    mccormick2[2,0]  1
    r[2,0]    mccormick3[2,0]  1
    r[2,1]    OBJ       2.9410882339705484e+00
    r[2,1]    mccormick1[2,1]  1
    r[2,1]    mccormick2[2,1]  1
    r[2,1]    mccormick3[2,1]  1
    r[2,3]    OBJ       7.8917678627795445e+00
    r[2,3]    mccormick1[2,3]  1
    r[2,3]    mccormick2[2,3]  1
    r[2,3]    mccormick3[2,3]  1
    r[2,4]    OBJ       5.6302753041036988e+00
    r[2,4]    mccormick1[2,4]  1
    r[2,4]    mccormick2[2,4]  1
    r[2,4]    mccormick3[2,4]  1
    r[2,5]    OBJ       7.9075912893876863e+00
    r[2,5]    mccormick1[2,5]  1
    r[2,5]    mccormick2[2,5]  1
    r[2,5]    mccormick3[2,5]  1
    r[3,2]    OBJ       7.8917678627795445e+00
    r[3,2]    mccormick1[3,2]  1
    r[3,2]    mccormick2[3,2]  1
    r[3,2]    mccormick3[3,2]  1
    r[3,4]    OBJ       5.8600341295934451e+00
    r[3,4]    mccormick1[3,4]  1
    r[3,4]    mccormick2[3,4]  1
    r[3,4]    mccormick3[3,4]  1
    r[3,5]    OBJ       3.0016662039607271e+00
    r[3,5]    mccormick1[3,5]  1
    r[3,5]    mccormick2[3,5]  1
    r[3,5]    mccormick3[3,5]  1
    r[4,0]    OBJ       4.8764741360946440e+00
    r[4,0]    mccormick1[4,0]  1
    r[4,0]    mccormick2[4,0]  1
    r[4,0]    mccormick3[4,0]  1
    r[4,1]    OBJ       8.5702975444263316e+00
    r[4,1]    mccormick1[4,1]  1
    r[4,1]    mccormick2[4,1]  1
    r[4,1]    mccormick3[4,1]  1
    r[4,2]    OBJ       5.6302753041036988e+00
    r[4,2]    mccormick1[4,2]  1
    r[4,2]    mccormick2[4,2]  1
    r[4,2]    mccormick3[4,2]  1
    r[4,3]    OBJ       5.8600341295934451e+00
    r[4,3]    mccormick1[4,3]  1
    r[4,3]    mccormick2[4,3]  1
    r[4,3]    mccormick3[4,3]  1
    r[4,5]    OBJ       7.9630396206473826e+00
    r[4,5]    mccormick1[4,5]  1
    r[4,5]    mccormick2[4,5]  1
    r[4,5]    mccormick3[4,5]  1
    r[5,1]    OBJ       9.4191294714532940e+00
    r[5,1]    mccormick1[5,1]  1
    r[5,1]    mccormick2[5,1]  1
    r[5,1]    mccormick3[5,1]  1
    r[5,2]    OBJ       7.9075912893876863e+00
    r[5,2]    mccormick1[5,2]  1
    r[5,2]    mccormick2[5,2]  1
    r[5,2]    mccormick3[5,2]  1
    r[5,3]    OBJ       3.0016662039607271e+00
    r[5,3]    mccormick1[5,3]  1
    r[5,3]    mccormick2[5,3]  1
    r[5,3]    mccormick3[5,3]  1
    r[5,4]    OBJ       7.9630396206473826e+00
    r[5,4]    mccormick1[5,4]  1
    r[5,4]    mccormick2[5,4]  1
    r[5,4]    mccormick3[5,4]  1
    MARKER    'MARKER'                 'INTEND'
RHS
    RHS1      flow_cons_source  1
    RHS1      flow_cons_target  1
    RHS1      primal_lower  121
    RHS1      mccormick3[0,1]  -1
    RHS1      mccormick3[0,2]  -1
    RHS1      mccormick3[0,4]  -1
    RHS1      mccormick3[1,0]  -1
    RHS1      mccormick3[1,2]  -1
    RHS1      mccormick3[1,4]  -1
    RHS1      mccormick3[1,5]  -1
    RHS1      mccormick3[2,0]  -1
    RHS1      mccormick3[2,1]  -1
    RHS1      mccormick3[2,3]  -1
    RHS1      mccormick3[2,4]  -1
    RHS1      mccormick3[2,5]  -1
    RHS1      mccormick3[3,2]  -1
    RHS1      mccormick3[3,4]  -1
    RHS1      mccormick3[3,5]  -1
    RHS1      mccormick3[4,0]  -1
    RHS1      mccormick3[4,1]  -1
    RHS1      mccormick3[4,2]  -1
    RHS1      mccormick3[4,3]  -1
    RHS1      mccormick3[4,5]  -1
    RHS1      mccormick3[5,1]  -1
    RHS1      mccormick3[5,2]  -1
    RHS1      mccormick3[5,3]  -1
    RHS1      mccormick3[5,4]  -1
BOUNDS
 BV BND1      y[0,1]  
 BV BND1      y[0,2]  
 BV BND1      y[0,4]  
 BV BND1      y[1,0]  
 BV BND1      y[1,2]  
 BV BND1      y[1,4]  
 BV BND1      y[1,5]  
 BV BND1      y[2,0]  
 BV BND1      y[2,1]  
 BV BND1      y[2,3]  
 BV BND1      y[2,4]  
 BV BND1      y[2,5]  
 BV BND1      y[3,2]  
 BV BND1      y[3,4]  
 BV BND1      y[3,5]  
 BV BND1      y[4,0]  
 BV BND1      y[4,1]  
 BV BND1      y[4,2]  
 BV BND1      y[4,3]  
 BV BND1      y[4,5]  
 BV BND1      y[5,1]  
 BV BND1      y[5,2]  
 BV BND1      y[5,3]  
 BV BND1      y[5,4]  
 BV BND1      x[0,1]  
 BV BND1      x[0,2]  
 BV BND1      x[0,4]  
 BV BND1      x[1,0]  
 BV BND1      x[1,2]  
 BV BND1      x[1,4]  
 BV BND1      x[1,5]  
 BV BND1      x[2,0]  
 BV BND1      x[2,1]  
 BV BND1      x[2,3]  
 BV BND1      x[2,4]  
 BV BND1      x[2,5]  
 BV BND1      x[3,2]  
 BV BND1      x[3,4]  
 BV BND1      x[3,5]  
 BV BND1      x[4,0]  
 BV BND1      x[4,1]  
 BV BND1      x[4,2]  
 BV BND1      x[4,3]  
 BV BND1      x[4,5]  
 BV BND1      x[5,1]  
 BV BND1      x[5,2]  
 BV BND1      x[5,3]  
 BV BND1      x[5,4]  
 BV BND1      u[0,1]  
 BV BND1      u[0,2]  
 BV BND1      u[0,4]  
 BV BND1      u[1,0]  
 BV BND1      u[1,2]  
 BV BND1      u[1,4]  
 BV BND1      u[1,5]  
 BV BND1      u[2,0]  
 BV BND1      u[2,1]  
 BV BND1      u[2,3]  
 BV BND1      u[2,4]  
 BV BND1      u[2,5]  
 BV BND1      u[3,2]  
 BV BND1      u[3,4]  
 BV BND1      u[3,5]  
 BV BND1      u[4,0]  
 BV BND1      u[4,1]  
 BV BND1      u[4,2]  
 BV BND1      u[4,3]  
 BV BND1      u[4,5]  
 BV BND1      u[5,1]  
 BV BND1      u[5,2]  
 BV BND1      u[5,3]  
 BV BND1      u[5,4]  
 BV BND1      r[0,1]  
 BV BND1      r[0,2]  
 BV BND1      r[0,4]  
 BV BND1      r[1,0]  
 BV BND1      r[1,2]  
 BV BND1      r[1,4]  
 BV BND1      r[1,5]  
 BV BND1      r[2,0]  
 BV BND1      r[2,1]  
 BV BND1      r[2,3]  
 BV BND1      r[2,4]  
 BV BND1      r[2,5]  
 BV BND1      r[3,2]  
 BV BND1      r[3,4]  
 BV BND1      r[3,5]  
 BV BND1      r[4,0]  
 BV BND1      r[4,1]  
 BV BND1      r[4,2]  
 BV BND1      r[4,3]  
 BV BND1      r[4,5]  
 BV BND1      r[5,1]  
 BV BND1      r[5,2]  
 BV BND1      r[5,3]  
 BV BND1      r[5,4]  
ENDATA
